NAME: I1482-n32-k3
COMMENT : (Fake et al, No of trucks: 3, Optimal value: )
TYPE : CVRP
DIMENSION : 32
EDGE_WEIGHT_TYPE : EUC_2D
CAPACITY : 40
NODE_COORD_SECTION
1 247 824
2 462 412
3 394 136
4 658 543
5 723 333
6 537 915
7 494 291
8 248 977
9 688 42
10 277 777
11 506 217
12 981 279
13 909 865
14 453 948
15 280 908
16 28 719
17 589 785
18 792 167
19 560 292
20 70 632
21 354 336
22 150 715
23 771 484
24 975 435
25 785 27
26 332 276
27 31 204
28 504 143
29 81 599
30 995 688
31 205 691
32 429 135
DEMAND_SECTION
1 0
2 2
3 5
4 2
5 5
6 4
7 4
8 5
9 1
10 5
11 4
12 5
13 2
14 5
15 1
16 2
17 1
18 5
19 2
20 3
21 1
22 3
23 3
24 1
25 4
26 5
27 3
28 5
29 1
30 4
31 4
32 1
DEPOT_SECTION
 1
 -1
 EOF 